120	22	4	84	
16	12	12	13

0	0	0	0	0	0	4	1	2	3	4
1	9	3	0	6	8	3	5	6	7
2	8	0	8	0	10	1	7
3	10	8	9	8	6	1	10
4	8	5	0	8	5	1	5
5	10	4	9	4	2	1	19
6	7	0	0	0	2	1	8
7	4	7	5	9	10	1	11
8	2	6	3	8	6	2	9	10
9	0	0	0	7	7	2	12	19
10	5	4	1	4	5	2	12	16
11	0	7	0	9	9	1	13
12	3	3	7	7	8	1	14
13	0	6	4	0	2	1	15
14	10	0	3	0	10	1	17
15	0	10	7	8	10	1	16
16	6	2	4	0	4	2	17	18
17	0	4	1	5	1	1	20
18	2	0	10	4	2	1	21
19	4	3	4	3	3	1	21
20	5	5	7	7	10	1	21
21	0	0	0	0	0	0
